NAME : CMT2Y
TYPE : MVRPB
DIMENSION : 76
VEHICLES : 6
CAPACITY : 14000
EDGE_WEIGHT_TYPE : EXACT_2D
NODE_COORD_SECTION
1 40 40
2 22 22
3 36 26
4 21 45
5 45 35
6 55 20
7 33 34
8 50 50
9 55 45
10 26 59
11 40 66
12 55 65
13 35 51
14 62 35
15 62 57
16 62 24
17 21 36
18 33 44
19 9 56
20 62 48
21 66 14
22 44 13
23 26 13
24 11 28
25 7 43
26 17 64
27 41 46
28 55 34
29 35 16
30 52 26
31 43 26
32 31 76
33 22 53
34 26 29
35 50 40
36 55 50
37 54 10
38 60 15
39 47 66
40 30 60
41 30 50
42 12 17
43 15 14
44 16 19
45 21 48
46 50 30
47 51 42
48 50 15
49 48 21
50 12 38
51 15 56
52 29 39
53 54 38
54 55 57
55 67 41
56 10 70
57 6 25
58 65 27
59 40 60
60 70 64
61 64 4
62 36 6
63 30 20
64 20 30
65 15 5
66 50 70
67 57 72
68 45 42
69 38 33
70 50 4
71 66 8
72 59 5
73 35 60
74 27 24
75 40 20
76 40 37
PICKUP_AND_DELIVERY_SECTION
1 0 0 10000000 0 0 0
2 0 0 10000000 0 1800 0
3 0 0 10000000 0 1878 722
4 0 0 10000000 0 513 587
5 0 0 10000000 0 2333 667
6 0 0 10000000 0 764 1336
7 0 0 10000000 0 1844 56
8 0 0 10000000 0 1500 0
9 0 0 10000000 0 1309 291
10 0 0 10000000 0 1278 1622
11 0 0 10000000 0 1576 1024
12 0 0 10000000 0 3131 569
13 0 0 10000000 0 1098 502
14 0 0 10000000 0 677 523
15 0 0 10000000 0 2850 250
16 0 0 10000000 0 310 490
17 0 0 10000000 0 1108 792
18 0 0 10000000 0 1500 500
19 0 0 10000000 0 209 1091
20 0 0 10000000 0 1161 339
21 0 0 10000000 0 467 1733
22 0 0 10000000 0 827 1973
23 0 0 10000000 0 600 600
24 0 0 10000000 0 236 364
25 0 0 10000000 0 440 2260
26 0 0 10000000 0 372 1028
27 0 0 10000000 0 1604 196
28 0 0 10000000 0 1051 649
29 0 0 10000000 0 1326 1574
30 0 0 10000000 0 650 650
31 0 0 10000000 0 1330 870
32 0 0 10000000 0 1020 1480
33 0 0 10000000 0 1162 1638
34 0 0 10000000 0 2421 279
35 0 0 10000000 0 1520 380
36 0 0 10000000 0 909 91
37 0 0 10000000 0 222 978
38 0 0 10000000 0 350 1050
39 0 0 10000000 0 1709 691
40 0 0 10000000 0 800 800
41 0 0 10000000 0 1980 1320
42 0 0 10000000 0 1059 441
43 0 0 10000000 0 1027 73
44 0 0 10000000 0 1516 284
45 0 0 10000000 0 744 956
46 0 0 10000000 0 1260 840
47 0 0 10000000 0 2224 476
48 0 0 10000000 0 570 1330
49 0 0 10000000 0 875 1125
50 0 0 10000000 0 158 342
51 0 0 10000000 0 589 1611
52 0 0 10000000 0 892 308
53 0 0 10000000 0 1337 563
54 0 0 10000000 0 2123 77
55 0 0 10000000 0 979 621
56 0 0 10000000 0 100 600
57 0 0 10000000 0 624 1976
58 0 0 10000000 0 582 818
59 0 0 10000000 0 1400 700
60 0 0 10000000 0 2194 206
61 0 0 10000000 0 81 1219
62 0 0 10000000 0 250 1250
63 0 0 10000000 0 1200 600
64 0 0 10000000 0 733 367
65 0 0 10000000 0 933 1867
66 0 0 10000000 0 643 257
67 0 0 10000000 0 2929 771
68 0 0 10000000 0 2800 200
69 0 0 10000000 0 868 132
70 0 0 10000000 0 64 736
71 0 0 10000000 0 133 967
72 0 0 10000000 0 25 275
73 0 0 10000000 0 58 42
74 0 0 10000000 0 533 67
75 0 0 10000000 0 500 500
76 0 0 10000000 0 1850 150
DEPOT_SECTION
1 
-1
EOF
